# Solution for model obj
# Objective value = 10
Op_4_root 1
Op_5_root 1
Op_Add 0
Op_AddI 0
Op_Divu 0
Op_ImmVal 1
Op_Lbu 1
Op_LoadImm 1
Op_RegVal 1
Op_Sll 0
Op_Srl 1
Op_Sub 1
Op_XorI 0
Op_leaf 1
Op_root 1
N_5_Reg_2_5_function_0_a5_2 1
A_5_Reg_2 1
N_5_Reg_4_5_function_0_s3_0 1
A_5_Reg_4 1
N_5_i64_32_5_primitive_i64_32 1
A_5_i64_32 1
N_5_Imm_0_5_function_0_ImmVal 1
A_5_Imm_0 1
N_5_i64_2147483648_5_primitive_i64_2147483648 1
A_5_i64_2147483648 1
N_5_Imm_8_5_function_1_ImmVal 1
A_5_Imm_8 1
N_5_i64_1_5_primitive_i64_1 1
A_5_i64_1 1
N_5_Imm_10_5_function_2_ImmVal 1
A_5_Imm_10 1
N_5_i64_0_5_primitive_i64_0 1
A_5_i64_0 1
N_5_Imm_12_5_function_3_ImmVal 1
A_5_Imm_12 1
N_5_i64_2147483649_5_primitive_i64_2147483649 1
A_5_i64_2147483649 1
N_5_Imm_32_5_function_4_ImmVal 0
A_5_Imm_32 0
N_5_i64_31_5_primitive_i64_31 1
A_5_i64_31 1
N_5_Imm_49_5_function_5_ImmVal 0
A_5_Imm_49 0
N_5_i64_2147483650_5_primitive_i64_2147483650 1
A_5_i64_2147483650 1
N_5_Imm_50_5_function_6_ImmVal 0
A_5_Imm_50 0
N_5_Inst_6_5_function_8_AddI 0
N_5_Inst_6_5_function_12_Add 0
N_5_Inst_6_5_function_4_Sub 0
N_5_Inst_6_5_function_0_Add 0
N_5_Inst_6_5_function_23_Sub 0
N_5_Inst_6_5_function_11_Add 0
N_5_Inst_6_5_function_2_Sub 1
N_5_Inst_6_5_function_14_Sub 0
N_5_Inst_6_5_function_1_Add 0
A_5_Inst_6 1
N_5_Inst_3_5_function_16_Add 0
N_5_Inst_3_5_function_13_Sub 0
N_5_Inst_3_5_function_12_Sub 0
N_5_Inst_3_5_function_0_RegVal 1
N_5_Inst_3_5_function_15_Add 0
N_5_Inst_3_5_function_5_AddI 0
A_5_Inst_3 1
N_5_Inst_5_5_function_7_AddI 0
N_5_Inst_5_5_function_19_Sub 0
N_5_Inst_5_5_function_19_Add 0
N_5_Inst_5_5_function_1_RegVal 1
N_5_Inst_5_5_function_20_Add 0
N_5_Inst_5_5_function_18_Sub 0
A_5_Inst_5 1
N_5_Inst_7_5_function_17_Sub 0
N_5_Inst_7_5_function_10_AddI 0
N_5_Inst_7_5_function_6_Sub 0
N_5_Inst_7_5_function_18_Add 0
N_5_Inst_7_5_function_2_Add 0
N_5_Inst_7_5_function_0_Sub 1
N_5_Inst_7_5_function_3_Add 0
N_5_Inst_7_5_function_13_Add 0
N_5_Inst_7_5_function_20_Sub 0
A_5_Inst_7 1
N_5_Inst_1_5_function_6_AddI 0
N_5_Inst_1_5_function_14_Add 0
N_5_Inst_1_5_function_11_Sub 0
N_5_Inst_1_5_function_17_Add 0
N_5_Inst_1_5_function_15_Sub 0
N_5_Inst_1_5_function_0_LoadImm 1
A_5_Inst_1 1
N_5_Inst_11_5_function_0_AddI 0
N_5_Inst_11_5_function_21_Sub 0
N_5_Inst_11_5_function_22_Sub 0
N_5_Inst_11_5_function_21_Add 0
N_5_Inst_11_5_function_22_Add 0
A_5_Inst_11 0
N_5_Inst_14_5_function_5_Add 0
N_5_Inst_14_5_function_4_Add 0
N_5_Inst_14_5_function_1_AddI 0
N_5_Inst_14_5_function_1_Sub 1
N_5_Inst_14_5_function_8_Sub 0
A_5_Inst_14 1
N_5_Inst_13_5_function_7_Sub 0
N_5_Inst_13_5_function_4_AddI 0
N_5_Inst_13_5_function_1_LoadImm 1
N_5_Inst_13_5_function_9_Add 0
A_5_Inst_13 1
N_5_Inst_19_5_function_6_Add 0
N_5_Inst_19_5_function_2_AddI 0
N_5_Inst_19_5_function_7_Add 0
N_5_Inst_19_5_function_9_Sub 0
N_5_Inst_19_5_function_3_Sub 0
A_5_Inst_19 0
N_5_Inst_29_5_function_8_Add 0
N_5_Inst_29_5_function_10_Sub 0
N_5_Inst_29_5_function_5_Sub 0
N_5_Inst_29_5_function_2_LoadImm 0
N_5_Inst_29_5_function_3_AddI 0
N_5_Inst_29_5_function_10_Add 0
A_5_Inst_29 0
N_5_Inst_117_5_function_24_Add 0
N_5_Inst_117_5_function_16_Sub 0
N_5_Inst_117_5_function_9_AddI 0
N_5_Inst_117_5_function_23_Add 0
N_5_Inst_117_5_function_24_Sub 0
A_5_Inst_117 0
N_5_Inst_9_5_function_0_XorI 0
A_5_Inst_9 0
N_5_Inst_15_5_function_1_XorI 0
A_5_Inst_15 0
N_5_Inst_21_5_function_3_XorI 0
A_5_Inst_21 0
N_5_Inst_33_5_function_4_LoadImm 0
N_5_Inst_33_5_function_6_XorI 0
A_5_Inst_33 0
N_5_Inst_53_5_function_8_XorI 0
N_5_Inst_53_5_function_5_LoadImm 1
A_5_Inst_53 1
N_5_Inst_23_5_function_5_XorI 0
A_5_Inst_23 0
N_5_Inst_35_5_function_3_LoadImm 0
N_5_Inst_35_5_function_7_XorI 0
A_5_Inst_35 0
N_5_Inst_16_5_function_2_XorI 0
A_5_Inst_16 0
N_5_Inst_22_5_function_4_XorI 0
A_5_Inst_22 0
N_5_Inst_123_5_function_9_XorI 0
A_5_Inst_123 0
N_5_Inst_124_5_function_10_XorI 0
A_5_Inst_124 0
N_5_Unit_0_5_function_0_root 1
A_5_Unit_0 1
N_4_Reg_15_4_function_0_x0 1
A_4_Reg_15 1
N_4_Reg_0_4_function_0_a2_0 1
A_4_Reg_0 1
N_4_Reg_2_4_function_0_s3_0 1
A_4_Reg_2 1
N_4_Reg_5_4_function_0_s4_0 1
A_4_Reg_5 1
N_4_i64_0_4_primitive_i64_0 1
A_4_i64_0 1
N_4_Imm_8_4_function_0_ImmVal 1
A_4_Imm_8 1
N_4_i64_1_4_primitive_i64_1 1
A_4_i64_1 1
N_4_Imm_12_4_function_1_ImmVal 1
A_4_Imm_12 1
N_4_i64_2147483648_4_primitive_i64_2147483648 1
A_4_i64_2147483648 1
N_4_Imm_18_4_function_2_ImmVal 1
A_4_Imm_18 1
N_4_Inst_7_4_function_0_Add 0
N_4_Inst_7_4_function_1_Sub 0
N_4_Inst_7_4_function_8_Sub 0
N_4_Inst_7_4_function_8_Add 0
N_4_Inst_7_4_function_11_Sub 0
N_4_Inst_7_4_function_6_AddI 0
N_4_Inst_7_4_function_3_Sub 1
N_4_Inst_7_4_function_7_Add 0
N_4_Inst_7_4_function_1_Add 0
A_4_Inst_7 1
N_4_Inst_6_4_function_9_Add 0
N_4_Inst_6_4_function_3_AddI 0
N_4_Inst_6_4_function_10_Sub 0
N_4_Inst_6_4_function_10_Add 0
N_4_Inst_6_4_function_9_Sub 0
N_4_Inst_6_4_function_2_RegVal 1
A_4_Inst_6 1
N_4_Inst_4_4_function_0_Divu 0
N_4_Inst_4_4_function_12_Sub 0
N_4_Inst_4_4_function_0_Srl 1
N_4_Inst_4_4_function_13_Sub 0
N_4_Inst_4_4_function_11_Add 0
N_4_Inst_4_4_function_4_AddI 0
N_4_Inst_4_4_function_12_Add 0
A_4_Inst_4 1
N_4_Inst_11_4_function_0_Sub 0
N_4_Inst_11_4_function_5_Sub 0
N_4_Inst_11_4_function_3_Add 0
N_4_Inst_11_4_function_2_Add 0
N_4_Inst_11_4_function_0_AddI 0
A_4_Inst_11 0
N_4_Inst_10_4_function_3_RegVal 1
N_4_Inst_10_4_function_0_LoadImm 0
N_4_Inst_10_4_function_6_Add 0
N_4_Inst_10_4_function_4_Sub 0
N_4_Inst_10_4_function_2_AddI 0
A_4_Inst_10 1
N_4_Inst_17_4_function_4_Add 0
N_4_Inst_17_4_function_1_AddI 0
N_4_Inst_17_4_function_6_Sub 0
N_4_Inst_17_4_function_2_Sub 1
N_4_Inst_17_4_function_5_Add 0
A_4_Inst_17 1
N_4_Inst_116_4_function_7_Sub 1
N_4_Inst_116_4_function_14_Sub 0
N_4_Inst_116_4_function_13_Add 0
N_4_Inst_116_4_function_14_Add 0
N_4_Inst_116_4_function_5_AddI 0
A_4_Inst_116 1
N_4_Inst_19_4_function_0_XorI 0
A_4_Inst_19 0
N_4_Inst_25_4_function_2_XorI 0
A_4_Inst_25 0
N_4_Inst_45_4_function_4_XorI 0
A_4_Inst_45 0
N_4_Inst_26_4_function_3_XorI 0
A_4_Inst_26 0
N_4_Inst_20_4_function_1_XorI 0
A_4_Inst_20 0
N_4_Inst_121_4_function_5_XorI 0
A_4_Inst_121 0
N_4_Inst_122_4_function_6_XorI 0
A_4_Inst_122 0
N_4_Inst_1_4_function_0_RegVal 1
A_4_Inst_1 1
N_4_Inst_14_4_function_0_Sll 0
A_4_Inst_14 0
N_4_Inst_3_4_function_1_RegVal 1
A_4_Inst_3 1
N_4_Inst_13_4_function_1_LoadImm 0
A_4_Inst_13 0
N_4_Inst_9_4_function_0_Lbu 1
A_4_Inst_9 1
N_4_Unit_0_4_function_0_root 1
A_4_Unit_0 1
N_root_eclass_root_enode 1
A_root_eclass 1
Opp_5_Reg_2_5_function_0_a5_2 0
Opp_5_Reg_4_5_function_0_s3_0 0
Opp_5_i64_32_5_primitive_i64_32 0
Opp_5_Imm_0_5_function_0_ImmVal 0
Opp_5_i64_2147483648_5_primitive_i64_2147483648 0
Opp_5_Imm_8_5_function_1_ImmVal 0
Opp_5_i64_1_5_primitive_i64_1 0
Opp_5_Imm_10_5_function_2_ImmVal 0
Opp_5_i64_0_5_primitive_i64_0 0
Opp_5_Imm_12_5_function_3_ImmVal 0
Opp_5_i64_2147483649_5_primitive_i64_2147483649 0
Opp_5_Imm_32_5_function_4_ImmVal 1
Opp_5_i64_31_5_primitive_i64_31 0
Opp_5_Imm_49_5_function_5_ImmVal 1
Opp_5_i64_2147483650_5_primitive_i64_2147483650 0
Opp_5_Imm_50_5_function_6_ImmVal 1
Opp_5_Inst_6_5_function_8_AddI 1
Opp_5_Inst_6_5_function_12_Add 1
Opp_5_Inst_6_5_function_4_Sub 1
Opp_5_Inst_6_5_function_0_Add 1
Opp_5_Inst_6_5_function_23_Sub 1
Opp_5_Inst_6_5_function_11_Add 1
Opp_5_Inst_6_5_function_2_Sub 0
Opp_5_Inst_6_5_function_14_Sub 1
Opp_5_Inst_6_5_function_1_Add 1
Opp_5_Inst_3_5_function_16_Add 1
Opp_5_Inst_3_5_function_13_Sub 1
Opp_5_Inst_3_5_function_12_Sub 1
Opp_5_Inst_3_5_function_0_RegVal 0
Opp_5_Inst_3_5_function_15_Add 1
Opp_5_Inst_3_5_function_5_AddI 1
Opp_5_Inst_5_5_function_7_AddI 1
Opp_5_Inst_5_5_function_19_Sub 1
Opp_5_Inst_5_5_function_19_Add 1
Opp_5_Inst_5_5_function_1_RegVal 0
Opp_5_Inst_5_5_function_20_Add 1
Opp_5_Inst_5_5_function_18_Sub 1
Opp_5_Inst_7_5_function_17_Sub 1
Opp_5_Inst_7_5_function_10_AddI 1
Opp_5_Inst_7_5_function_6_Sub 1
Opp_5_Inst_7_5_function_18_Add 1
Opp_5_Inst_7_5_function_2_Add 1
Opp_5_Inst_7_5_function_0_Sub 0
Opp_5_Inst_7_5_function_3_Add 1
Opp_5_Inst_7_5_function_13_Add 1
Opp_5_Inst_7_5_function_20_Sub 1
Opp_5_Inst_1_5_function_6_AddI 1
Opp_5_Inst_1_5_function_14_Add 1
Opp_5_Inst_1_5_function_11_Sub 1
Opp_5_Inst_1_5_function_17_Add 1
Opp_5_Inst_1_5_function_15_Sub 1
Opp_5_Inst_1_5_function_0_LoadImm 0
Opp_5_Inst_11_5_function_0_AddI 1
Opp_5_Inst_11_5_function_21_Sub 1
Opp_5_Inst_11_5_function_22_Sub 1
Opp_5_Inst_11_5_function_21_Add 1
Opp_5_Inst_11_5_function_22_Add 1
Opp_5_Inst_14_5_function_5_Add 1
Opp_5_Inst_14_5_function_4_Add 1
Opp_5_Inst_14_5_function_1_AddI 1
Opp_5_Inst_14_5_function_1_Sub 0
Opp_5_Inst_14_5_function_8_Sub 1
Opp_5_Inst_13_5_function_7_Sub 1
Opp_5_Inst_13_5_function_4_AddI 1
Opp_5_Inst_13_5_function_1_LoadImm 0
Opp_5_Inst_13_5_function_9_Add 1
Opp_5_Inst_19_5_function_6_Add 1
Opp_5_Inst_19_5_function_2_AddI 1
Opp_5_Inst_19_5_function_7_Add 1
Opp_5_Inst_19_5_function_9_Sub 1
Opp_5_Inst_19_5_function_3_Sub 1
Opp_5_Inst_29_5_function_8_Add 1
Opp_5_Inst_29_5_function_10_Sub 1
Opp_5_Inst_29_5_function_5_Sub 1
Opp_5_Inst_29_5_function_2_LoadImm 1
Opp_5_Inst_29_5_function_3_AddI 1
Opp_5_Inst_29_5_function_10_Add 1
Opp_5_Inst_117_5_function_24_Add 1
Opp_5_Inst_117_5_function_16_Sub 1
Opp_5_Inst_117_5_function_9_AddI 1
Opp_5_Inst_117_5_function_23_Add 1
Opp_5_Inst_117_5_function_24_Sub 1
Opp_5_Inst_9_5_function_0_XorI 1
Opp_5_Inst_15_5_function_1_XorI 1
Opp_5_Inst_21_5_function_3_XorI 1
Opp_5_Inst_33_5_function_4_LoadImm 1
Opp_5_Inst_33_5_function_6_XorI 1
Opp_5_Inst_53_5_function_8_XorI 1
Opp_5_Inst_53_5_function_5_LoadImm 0
Opp_5_Inst_23_5_function_5_XorI 1
Opp_5_Inst_35_5_function_3_LoadImm 1
Opp_5_Inst_35_5_function_7_XorI 1
Opp_5_Inst_16_5_function_2_XorI 1
Opp_5_Inst_22_5_function_4_XorI 1
Opp_5_Inst_123_5_function_9_XorI 1
Opp_5_Inst_124_5_function_10_XorI 1
Opp_5_Unit_0_5_function_0_root 0
Opp_4_Reg_15_4_function_0_x0 0
Opp_4_Reg_0_4_function_0_a2_0 0
Opp_4_Reg_2_4_function_0_s3_0 0
Opp_4_Reg_5_4_function_0_s4_0 0
Opp_4_i64_0_4_primitive_i64_0 0
Opp_4_Imm_8_4_function_0_ImmVal 0
Opp_4_i64_1_4_primitive_i64_1 0
Opp_4_Imm_12_4_function_1_ImmVal 0
Opp_4_i64_2147483648_4_primitive_i64_2147483648 0
Opp_4_Imm_18_4_function_2_ImmVal 0
Opp_4_Inst_7_4_function_0_Add 1
Opp_4_Inst_7_4_function_1_Sub 1
Opp_4_Inst_7_4_function_8_Sub 1
Opp_4_Inst_7_4_function_8_Add 1
Opp_4_Inst_7_4_function_11_Sub 1
Opp_4_Inst_7_4_function_6_AddI 1
Opp_4_Inst_7_4_function_3_Sub 0
Opp_4_Inst_7_4_function_7_Add 1
Opp_4_Inst_7_4_function_1_Add 1
Opp_4_Inst_6_4_function_9_Add 1
Opp_4_Inst_6_4_function_3_AddI 1
Opp_4_Inst_6_4_function_10_Sub 1
Opp_4_Inst_6_4_function_10_Add 1
Opp_4_Inst_6_4_function_9_Sub 1
Opp_4_Inst_6_4_function_2_RegVal 0
Opp_4_Inst_4_4_function_0_Divu 1
Opp_4_Inst_4_4_function_12_Sub 1
Opp_4_Inst_4_4_function_0_Srl 0
Opp_4_Inst_4_4_function_13_Sub 1
Opp_4_Inst_4_4_function_11_Add 1
Opp_4_Inst_4_4_function_4_AddI 1
Opp_4_Inst_4_4_function_12_Add 1
Opp_4_Inst_11_4_function_0_Sub 1
Opp_4_Inst_11_4_function_5_Sub 1
Opp_4_Inst_11_4_function_3_Add 1
Opp_4_Inst_11_4_function_2_Add 1
Opp_4_Inst_11_4_function_0_AddI 1
Opp_4_Inst_10_4_function_3_RegVal 0
Opp_4_Inst_10_4_function_0_LoadImm 1
Opp_4_Inst_10_4_function_6_Add 1
Opp_4_Inst_10_4_function_4_Sub 1
Opp_4_Inst_10_4_function_2_AddI 1
Opp_4_Inst_17_4_function_4_Add 1
Opp_4_Inst_17_4_function_1_AddI 1
Opp_4_Inst_17_4_function_6_Sub 1
Opp_4_Inst_17_4_function_2_Sub 0
Opp_4_Inst_17_4_function_5_Add 1
Opp_4_Inst_116_4_function_7_Sub 0
Opp_4_Inst_116_4_function_14_Sub 1
Opp_4_Inst_116_4_function_13_Add 1
Opp_4_Inst_116_4_function_14_Add 1
Opp_4_Inst_116_4_function_5_AddI 1
Opp_4_Inst_19_4_function_0_XorI 1
Opp_4_Inst_25_4_function_2_XorI 1
Opp_4_Inst_45_4_function_4_XorI 1
Opp_4_Inst_26_4_function_3_XorI 1
Opp_4_Inst_20_4_function_1_XorI 1
Opp_4_Inst_121_4_function_5_XorI 1
Opp_4_Inst_122_4_function_6_XorI 1
Opp_4_Inst_1_4_function_0_RegVal 0
Opp_4_Inst_14_4_function_0_Sll 1
Opp_4_Inst_3_4_function_1_RegVal 0
Opp_4_Inst_13_4_function_1_LoadImm 1
Opp_4_Inst_9_4_function_0_Lbu 0
Opp_4_Unit_0_4_function_0_root 0
Opp_root_eclass_root_enode 0
L_5_i64_32 70
L_5_Imm_0 69
L_5_i64_2147483648 70
L_5_Imm_8 69
L_5_i64_1 70
L_5_Imm_10 69
L_5_i64_0 70
L_5_Imm_12 69
L_5_i64_2147483649 70
L_5_Imm_32 70
L_5_i64_31 70
L_5_Imm_49 70
L_5_i64_2147483650 70
L_5_Imm_50 70
L_5_Inst_22 0
L_5_Inst_6 3
L_5_Inst_13 5
L_5_Inst_5 5
L_5_Inst_19 0
L_5_Inst_3 4
L_5_Inst_11 0
L_5_Inst_14 4
L_5_Reg_2 70
L_5_Inst_23 0
L_5_Inst_16 0
L_5_Reg_4 70
L_5_Inst_117 0
L_5_Inst_7 2
L_5_Inst_124 0
L_5_Inst_29 0
L_5_Inst_1 3
L_5_Inst_35 0
L_5_Inst_9 0
L_5_Inst_15 0
L_5_Inst_53 0
L_5_Inst_21 0
L_5_Inst_33 0
L_5_Inst_123 1
L_5_Unit_0 1
L_4_i64_0 70
L_4_Imm_8 69
L_4_i64_1 70
L_4_Imm_12 69
L_4_i64_2147483648 70
L_4_Imm_18 69
L_4_Inst_4 4
L_4_Inst_7 3
L_4_Inst_6 5
L_4_Inst_11 0
L_4_Inst_116 1
L_4_Inst_10 69
L_4_Inst_122 0
L_4_Inst_17 4
L_4_Inst_26 0
L_4_Reg_5 70
L_4_Inst_14 70
L_4_Inst_1 69
L_4_Inst_3 69
L_4_Inst_20 0
L_4_Inst_19 0
L_4_Reg_15 70
L_4_Inst_45 0
L_4_Inst_25 0
L_4_Inst_121 2
L_4_Reg_0 70
L_4_Inst_13 70
L_4_Reg_2 70
L_4_Inst_9 2
L_4_Unit_0 1
L_root_eclass 0
